SECTION Graph 
Nodes 886
Edges 1800
E 1 10 1
E 1 833 1
E 1 836 9
E 2 11 1
E 2 835 2
E 2 837 9
E 3 836 6
E 4 833 9
E 4 836 1
E 5 835 9
E 5 837 2
E 6 15 5
E 6 556 1
E 7 556 12
E 8 9 2
E 8 823 3
E 8 827 1
E 8 830 6
E 9 826 3
E 9 829 2
E 9 831 6
E 10 11 2
E 10 830 9
E 10 832 1
E 11 831 9
E 11 834 2
E 12 827 6
E 12 830 1
E 12 832 9
E 13 829 6
E 13 831 2
E 13 834 9
E 14 23 7
E 14 511 1
E 14 545 12
E 15 511 12
E 15 545 1
E 16 17 2
E 16 27 1
E 16 808 1
E 16 811 2
E 17 28 1
E 17 813 2
E 17 814 2
E 18 19 2
E 18 819 1
E 18 820 1
E 18 823 2
E 19 821 1
E 19 825 2
E 19 826 2
E 20 203 6
E 20 810 7
E 20 816 1
E 20 818 5
E 21 815 7
E 21 817 2
E 21 824 5
E 22 32 5
E 22 462 1
E 22 489 12
E 23 462 12
E 23 489 1
E 24 34 1
E 24 202 2
E 24 806 5
E 25 205 2
E 25 822 6
E 26 793 1
E 26 796 1
E 27 28 2
E 27 803 2
E 27 805 1
E 28 807 2
E 28 812 2
E 29 795 5
E 29 798 1
E 29 799 1
E 29 802 7
E 30 800 2
E 30 809 7
E 31 398 6
E 31 421 1
E 31 445 12
E 32 421 12
E 32 445 1
E 33 206 2
E 33 778 29
E 33 785 4
E 33 788 4
E 34 209 2
E 34 784 27
E 34 804 5
E 35 210 1
E 35 726 5
E 35 733 1
E 35 740 1
E 36 210 1
E 36 729 5
E 36 744 1
E 36 745 1
E 37 761 1
E 37 762 1
E 37 776 11
E 37 777 12
E 38 664 16
E 38 672 14
E 38 705 1
E 38 706 1
E 39 697 5
E 39 705 1
E 39 710 1
E 39 733 12
E 40 41 1
E 40 734 1
E 40 735 1
E 40 770 18
E 41 738 1
E 41 762 13
E 41 771 18
E 42 43 2
E 42 71 1
E 42 448 1
E 42 458 2
E 43 453 1
E 43 460 1
E 43 466 2
E 44 45 2
E 44 480 6
E 44 488 1
E 45 492 1
E 45 677 78
E 46 439 15
E 46 459 6
E 46 480 1
E 46 488 6
E 47 472 6
E 47 483 1
E 47 497 5
E 47 520 14
E 48 417 2
E 48 419 1
E 48 426 1
E 48 454 15
E 49 51 1
E 49 439 6
E 49 488 15
E 50 52 1
E 50 419 1
E 50 426 1
E 50 437 6
E 51 53 1
E 51 437 6
E 52 377 12
E 52 418 1
E 52 434 6
E 53 420 12
E 53 434 6
E 54 329 2
E 54 330 2
E 55 355 6
E 55 386 2
E 56 335 6
E 56 355 2
E 56 378 3
E 56 386 6
E 57 753 8
E 57 756 6
E 57 763 1
E 57 766 2
E 58 763 12
E 58 775 1
E 58 778 1
E 58 785 26
E 59 679 1
E 59 680 1
E 59 694 6
E 59 701 10
E 60 62 5
E 60 680 10
E 60 701 1
E 61 62 10
E 61 63 5
E 61 658 1
E 61 680 5
E 62 64 5
E 63 64 10
E 63 65 1
E 63 646 1
E 64 66 1
E 65 66 10
E 65 643 1
E 65 644 1
E 66 68 1
E 66 681 1
E 67 513 61
E 67 638 1
E 67 643 1
E 67 644 1
E 68 543 61
E 68 655 5
E 68 677 1
E 69 390 6
E 69 410 1
E 69 423 2
E 69 431 6
E 70 71 1
E 70 72 9
E 70 411 15
E 70 448 1
E 71 431 9
E 71 453 2
E 72 380 15
E 72 410 6
E 72 431 1
E 73 423 6
E 73 431 2
E 73 438 1
E 73 453 9
E 74 695 7
E 74 707 1
E 74 712 1
E 74 723 5
E 75 723 6
E 75 731 1
E 75 736 1
E 75 747 5
E 76 707 5
E 76 721 1
E 76 723 1
E 76 731 6
E 77 712 5
E 77 723 1
E 77 725 1
E 77 736 6
E 78 689 31
E 78 759 1
E 79 773 1
E 79 783 24
E 80 400 4
E 80 416 1
E 80 422 1
E 80 433 6
E 81 433 5
E 81 443 1
E 81 476 12
E 81 557 44
E 82 383 15
E 82 416 6
E 82 433 1
E 82 443 5
E 83 422 6
E 83 433 1
E 83 479 17
E 83 546 43
E 84 103 5
E 84 211 1
E 84 611 1
E 84 625 6
E 85 104 5
E 85 621 1
E 85 624 1
E 85 634 6
E 86 212 1
E 86 625 9
E 86 641 1
E 86 649 3
E 87 215 1
E 87 634 9
E 87 659 1
E 87 665 3
E 88 600 12
E 88 611 6
E 88 625 1
E 88 641 9
E 89 624 6
E 89 634 1
E 89 659 9
E 90 109 5
E 90 216 1
E 90 482 1
E 90 494 6
E 91 110 5
E 91 216 1
E 91 487 1
E 91 503 6
E 92 494 9
E 92 518 1
E 92 522 1
E 92 531 3
E 93 503 9
E 93 522 1
E 93 530 1
E 93 535 3
E 94 374 43
E 94 482 6
E 94 494 1
E 94 518 9
E 95 487 6
E 95 503 1
E 95 530 9
E 95 597 41
E 96 115 5
E 96 279 1
E 96 282 2
E 96 286 6
E 97 98 1
E 97 99 9
E 97 313 21
E 98 286 9
E 98 291 2
E 98 314 21
E 99 279 6
E 99 286 1
E 100 282 6
E 100 286 2
E 100 291 9
E 100 366 47
E 101 217 1
E 101 574 1
E 101 575 1
E 101 589 9
E 102 227 1
E 102 583 1
E 102 585 1
E 102 601 9
E 103 218 1
E 103 589 6
E 103 602 1
E 104 221 1
E 104 601 6
E 104 614 1
E 105 465 54
E 105 575 9
E 105 589 1
E 105 602 6
E 106 585 9
E 106 601 1
E 106 614 6
E 107 222 1
E 107 308 44
E 107 430 1
E 107 450 9
E 108 222 1
E 108 229 1
E 108 441 1
E 108 456 9
E 109 450 6
E 109 468 1
E 109 474 1
E 110 456 6
E 110 474 1
E 110 478 1
E 111 319 43
E 111 450 1
E 111 468 6
E 112 441 9
E 112 456 1
E 112 465 1
E 112 478 6
E 113 114 1
E 113 116 9
E 113 131 1
E 114 132 1
E 114 270 2
E 114 272 9
E 115 272 6
E 115 276 1
E 115 278 2
E 116 272 1
E 116 276 6
E 117 270 9
E 117 272 2
E 117 278 6
E 117 315 47
E 118 137 5
E 118 544 1
E 118 548 1
E 118 559 6
E 119 138 5
E 119 223 1
E 119 558 1
E 119 568 6
E 120 217 1
E 120 224 1
E 120 559 9
E 120 574 1
E 121 227 1
E 121 568 9
E 121 585 1
E 122 544 6
E 122 554 1
E 122 559 1
E 122 574 9
E 123 558 6
E 123 568 1
E 123 616 25
E 124 143 5
E 124 228 1
E 124 382 1
E 124 403 6
E 125 144 5
E 125 228 1
E 125 392 1
E 125 415 6
E 126 222 1
E 126 229 1
E 126 403 9
E 126 430 1
E 127 229 1
E 127 415 9
E 127 440 1
E 127 441 1
E 128 382 6
E 128 403 1
E 128 430 9
E 129 392 6
E 129 415 1
E 129 440 9
E 129 554 54
E 130 149 5
E 130 266 1
E 130 267 2
E 130 268 6
E 131 132 1
E 131 133 9
E 132 268 9
E 132 269 2
E 133 266 6
E 133 268 1
E 134 267 6
E 134 268 2
E 134 269 9
E 135 237 1
E 135 486 1
E 135 490 1
E 135 516 9
E 136 230 1
E 136 502 1
E 136 528 9
E 137 231 1
E 137 516 6
E 137 529 1
E 138 234 1
E 138 528 6
E 138 547 1
E 139 486 9
E 139 512 1
E 139 516 1
E 139 529 6
E 140 528 1
E 140 547 6
E 141 235 1
E 141 241 1
E 141 317 1
E 141 336 9
E 142 235 1
E 142 320 1
E 142 324 1
E 142 344 9
E 143 236 1
E 143 336 6
E 143 361 1
E 144 236 1
E 144 344 6
E 144 379 1
E 145 317 9
E 145 336 1
E 145 361 6
E 146 324 9
E 146 344 1
E 146 379 6
E 146 512 54
E 147 148 1
E 147 150 9
E 147 165 1
E 148 166 1
E 148 262 2
E 148 263 9
E 149 263 6
E 149 264 1
E 149 265 2
E 150 263 1
E 150 264 6
E 151 262 9
E 151 263 2
E 151 265 6
E 152 171 5
E 152 444 1
E 152 447 1
E 152 464 6
E 153 172 5
E 153 455 1
E 153 463 1
E 153 477 6
E 154 237 1
E 154 464 9
E 154 484 1
E 154 486 1
E 155 230 1
E 155 240 1
E 155 477 9
E 155 502 1
E 156 311 54
E 156 444 6
E 156 464 1
E 156 484 9
E 157 463 6
E 157 477 1
E 157 502 9
E 158 177 5
E 158 293 1
E 158 294 1
E 158 300 6
E 159 178 5
E 159 294 1
E 159 295 1
E 159 307 6
E 160 241 1
E 160 300 9
E 160 317 1
E 161 235 1
E 161 241 1
E 161 307 9
E 161 320 1
E 162 293 6
E 162 300 1
E 163 295 6
E 163 307 1
E 163 311 1
E 163 320 9
E 164 183 5
E 164 258 1
E 164 259 2
E 164 260 6
E 165 166 1
E 165 167 9
E 166 260 9
E 166 261 2
E 167 258 6
E 167 260 1
E 168 259 6
E 168 260 2
E 168 261 9
E 169 187 1
E 169 387 1
E 169 391 1
E 169 424 9
E 170 188 1
E 170 402 1
E 170 414 1
E 170 435 9
E 171 242 1
E 171 424 6
E 171 436 1
E 172 245 1
E 172 435 6
E 172 446 1
E 173 180 55
E 173 387 9
E 173 424 1
E 173 436 6
E 174 414 9
E 174 435 1
E 174 446 6
E 175 193 1
E 175 281 1
E 175 283 1
E 175 287 9
E 176 194 1
E 176 283 1
E 176 285 1
E 176 289 9
E 177 246 1
E 177 287 6
E 177 290 1
E 178 246 1
E 178 289 6
E 178 292 1
E 179 281 9
E 179 287 1
E 179 290 6
E 180 285 9
E 180 289 1
E 180 292 6
E 181 182 1
E 181 184 9
E 181 198 1
E 182 199 1
E 182 254 2
E 182 255 9
E 183 255 6
E 183 256 1
E 183 257 2
E 184 255 1
E 184 256 6
E 185 254 9
E 185 255 2
E 185 257 6
E 186 327 1
E 186 351 6
E 187 247 1
E 187 351 9
E 187 384 1
E 188 250 1
E 188 373 9
E 188 408 1
E 189 196 55
E 189 327 6
E 189 351 1
E 189 384 9
E 190 373 1
E 190 408 9
E 191 271 1
E 191 274 6
E 192 271 1
E 192 273 1
E 192 277 6
E 193 251 1
E 193 274 9
E 193 280 1
E 194 251 1
E 194 277 9
E 194 284 1
E 195 274 1
E 195 280 9
E 196 273 6
E 196 277 1
E 196 284 9
E 197 252 6
E 198 199 1
E 199 252 9
E 199 253 2
E 200 252 2
E 200 253 9
E 201 722 20
E 201 772 9
E 202 203 7
E 202 810 6
E 203 204 5
E 204 205 1
E 204 818 6
E 205 820 6
E 206 207 1
E 206 790 4
E 207 208 5
E 207 792 4
E 208 209 7
E 208 776 39
E 208 797 4
E 209 779 39
E 209 801 5
E 210 727 5
E 210 742 1
E 211 218 5
E 211 617 1
E 211 628 6
E 212 213 1
E 212 628 9
E 212 652 3
E 213 214 1
E 213 629 9
E 213 656 3
E 214 215 1
E 214 631 9
E 214 660 3
E 215 632 9
E 215 662 3
E 216 474 5
E 216 499 6
E 217 580 1
E 217 592 9
E 218 219 1
E 218 592 6
E 219 220 1
E 219 596 6
E 219 617 5
E 220 221 1
E 220 598 6
E 220 619 5
E 221 599 6
E 221 621 5
E 222 452 9
E 223 234 5
E 223 552 1
E 223 567 6
E 224 225 1
E 224 561 9
E 224 580 1
E 225 226 1
E 225 563 9
E 225 581 1
E 226 227 1
E 226 565 9
E 226 583 1
E 227 567 9
E 228 236 5
E 228 409 6
E 229 409 9
E 230 498 1
E 230 524 9
E 231 232 1
E 231 517 6
E 231 548 5
E 232 233 1
E 232 519 6
E 232 550 5
E 233 234 1
E 233 521 6
E 233 552 5
E 234 524 6
E 235 339 9
E 236 339 6
E 237 238 1
E 237 467 9
E 238 239 1
E 238 471 9
E 238 490 1
E 239 240 1
E 239 473 9
E 239 493 1
E 240 475 9
E 240 498 1
E 241 304 9
E 242 243 1
E 242 427 6
E 242 447 5
E 243 244 1
E 243 428 6
E 243 449 5
E 244 245 1
E 244 429 6
E 244 451 5
E 245 432 6
E 245 455 5
E 246 288 6
E 246 294 5
E 247 248 1
E 247 356 9
E 247 391 1
E 248 249 1
E 248 360 9
E 248 395 1
E 249 250 1
E 249 365 9
E 249 399 1
E 250 368 9
E 250 402 1
E 251 275 9
E 251 283 1
E 253 254 1
E 256 258 5
E 257 259 5
E 261 262 1
E 264 266 5
E 265 267 5
E 269 270 1
E 269 299 47
E 270 302 47
E 271 275 6
E 273 327 55
E 274 275 1
E 275 277 1
E 276 279 5
E 278 282 5
E 278 296 29
E 280 281 1
E 282 309 29
E 283 288 9
E 284 285 1
E 284 384 55
E 285 387 55
E 287 288 1
E 288 289 1
E 290 293 5
E 291 316 21
E 291 341 33
E 291 396 47
E 292 295 5
E 292 436 55
E 294 304 6
E 295 297 1
E 296 298 1
E 296 309 5
E 297 311 6
E 297 444 54
E 298 303 2
E 298 310 5
E 299 301 1
E 299 302 1
E 300 304 1
E 301 305 1
E 301 306 1
E 302 306 1
E 302 315 9
E 303 312 5
E 303 325 15
E 304 307 1
E 305 308 1
E 305 430 44
E 306 308 1
E 306 318 9
E 308 319 9
E 309 310 1
E 309 341 19
E 310 312 2
E 310 346 19
E 311 322 9
E 312 337 15
E 312 357 19
E 313 314 1
E 313 321 6
E 314 316 2
E 314 323 6
E 315 318 1
E 315 325 6
E 316 326 6
E 316 342 12
E 318 319 1
E 318 328 6
E 319 331 6
E 320 322 1
E 321 323 1
E 321 343 9
E 322 324 1
E 322 484 54
E 323 326 2
E 323 348 9
E 324 485 54
E 325 328 1
E 325 337 5
E 326 358 9
E 326 371 12
E 328 331 1
E 328 340 5
E 329 333 2
E 329 334 3
E 330 332 1
E 330 333 2
E 331 345 5
E 331 468 43
E 332 335 2
E 332 355 6
E 333 335 1
E 333 359 6
E 334 338 1
E 334 350 3
E 335 350 3
E 336 339 1
E 337 340 1
E 337 366 6
E 338 349 2
E 338 354 3
E 339 344 1
E 340 345 1
E 340 369 6
E 341 346 1
E 341 370 6
E 342 347 1
E 342 371 6
E 343 348 1
E 343 349 1
E 345 374 6
E 345 482 43
E 346 357 2
E 346 375 6
E 347 352 1
E 347 376 6
E 348 353 1
E 348 358 2
E 349 353 1
E 349 359 2
E 350 354 1
E 350 378 6
E 351 356 1
E 352 380 6
E 352 410 15
E 353 362 2
E 353 363 2
E 354 364 2
E 354 381 6
E 356 360 1
E 357 383 6
E 357 416 15
E 358 362 1
E 358 401 12
E 359 363 1
E 359 364 1
E 360 365 1
E 361 382 5
E 362 372 2
E 362 406 12
E 363 367 1
E 363 372 2
E 364 367 1
E 364 385 6
E 365 368 1
E 366 369 1
E 366 396 9
E 367 377 2
E 367 389 6
E 368 373 1
E 369 374 1
E 369 400 9
E 370 375 1
E 370 388 5
E 371 376 1
E 371 401 9
E 372 377 1
E 372 418 12
E 374 404 9
E 375 383 2
E 375 390 5
E 376 380 1
E 376 405 9
E 377 393 6
E 378 381 1
E 378 394 6
E 379 392 5
E 379 525 54
E 380 411 9
E 381 385 2
E 381 398 6
E 383 397 5
E 384 387 1
E 385 389 1
E 385 407 6
E 386 394 3
E 388 390 1
E 388 410 6
E 389 393 2
E 389 413 6
E 390 397 2
E 391 395 1
E 391 427 9
E 392 541 54
E 393 420 6
E 393 434 12
E 394 398 1
E 394 421 6
E 395 399 1
E 395 428 9
E 396 400 1
E 396 416 4
E 397 423 6
E 397 443 15
E 398 407 2
E 399 402 1
E 399 429 9
E 400 404 1
E 401 405 1
E 401 406 1
E 402 432 9
E 403 409 1
E 404 422 4
E 404 518 43
E 405 411 1
E 405 412 1
E 406 412 1
E 406 418 2
E 407 413 1
E 408 414 1
E 409 415 1
E 411 417 1
E 412 417 1
E 412 419 2
E 413 420 2
E 417 448 15
E 418 419 1
E 422 532 43
E 423 425 1
E 424 427 1
E 425 438 6
E 425 443 20
E 426 439 6
E 426 459 15
E 427 428 1
E 428 429 1
E 429 432 1
E 432 435 1
E 434 437 1
E 436 444 5
E 437 439 1
E 438 457 9
E 438 476 15
E 440 442 1
E 440 571 54
E 441 442 1
E 442 465 9
E 442 575 54
E 443 491 21
E 445 462 5
E 446 463 5
E 447 449 1
E 447 467 6
E 448 454 2
E 449 451 1
E 449 471 6
E 450 452 1
E 451 455 1
E 451 473 6
E 452 456 1
E 452 474 6
E 453 457 1
E 454 458 1
E 454 459 1
E 455 475 6
E 457 460 1
E 457 491 14
E 458 461 1
E 458 466 2
E 459 461 1
E 460 469 2
E 460 496 14
E 461 470 2
E 461 480 6
E 464 467 1
E 465 481 6
E 466 469 1
E 466 470 1
E 467 471 1
E 468 482 5
E 469 472 1
E 469 505 14
E 470 472 1
E 470 483 6
E 471 473 1
E 472 507 14
E 473 475 1
E 475 477 1
E 476 479 1
E 476 495 9
E 478 481 1
E 478 487 5
E 479 500 9
E 480 483 2
E 481 597 51
E 481 602 54
E 483 492 5
E 484 485 1
E 485 486 1
E 485 512 9
E 487 611 55
E 489 511 7
E 490 493 1
E 490 517 9
E 491 495 1
E 491 496 1
E 492 497 1
E 493 498 1
E 493 519 9
E 494 499 1
E 495 500 1
E 495 501 1
E 496 501 1
E 496 505 2
E 497 537 14
E 498 521 9
E 499 503 1
E 499 522 9
E 500 504 1
E 501 504 1
E 501 506 2
E 504 508 2
E 504 635 62
E 505 506 1
E 505 507 1
E 506 508 1
E 506 509 1
E 507 509 1
E 507 510 1
E 508 513 1
E 508 603 43
E 509 513 1
E 509 514 1
E 510 514 1
E 510 520 5
E 512 525 6
E 513 515 1
E 514 515 1
E 514 523 5
E 515 527 5
E 515 644 61
E 516 517 1
E 517 519 1
E 518 526 3
E 519 521 1
E 520 523 1
E 520 537 5
E 521 524 1
E 522 533 3
E 523 527 1
E 523 540 5
E 524 528 1
E 525 529 1
E 525 541 5
E 526 531 1
E 526 532 1
E 527 543 5
E 527 655 61
E 529 544 5
E 530 538 3
E 530 577 21
E 531 533 1
E 531 534 1
E 532 534 1
E 532 546 6
E 533 535 1
E 533 536 1
E 534 536 1
E 534 549 6
E 535 538 1
E 535 539 1
E 536 539 1
E 536 551 6
E 537 540 1
E 538 542 1
E 538 569 14
E 539 542 1
E 539 553 6
E 540 543 1
E 541 544 1
E 541 554 6
E 542 555 6
E 542 584 21
E 545 556 5
E 546 549 1
E 546 557 5
E 547 558 5
E 548 550 1
E 548 561 6
E 549 551 1
E 549 560 5
E 550 552 1
E 550 563 6
E 551 553 1
E 551 562 5
E 552 565 6
E 553 555 1
E 553 564 5
E 554 571 9
E 555 566 5
E 555 594 21
E 557 560 1
E 557 603 24
E 559 561 1
E 560 562 1
E 560 573 7
E 561 563 1
E 562 564 1
E 562 576 7
E 563 565 1
E 564 566 1
E 564 578 7
E 565 567 1
E 566 579 7
E 566 588 14
E 567 568 1
E 569 570 1
E 569 588 12
E 570 572 1
E 570 591 12
E 571 574 1
E 571 575 1
E 572 582 5
E 572 595 12
E 573 576 1
E 573 606 17
E 576 578 1
E 576 608 17
E 577 582 3
E 577 586 6
E 578 579 1
E 578 609 17
E 579 610 17
E 579 630 27
E 579 635 30
E 580 581 1
E 580 596 9
E 581 583 1
E 581 598 9
E 582 584 1
E 582 587 5
E 583 599 9
E 584 593 6
E 584 594 6
E 586 590 3
E 586 612 14
E 587 590 1
E 587 604 7
E 588 591 1
E 588 635 23
E 589 592 1
E 590 593 1
E 590 620 14
E 591 595 1
E 591 637 23
E 592 596 1
E 593 607 6
E 593 622 14
E 594 604 5
E 594 605 5
E 595 605 5
E 595 639 23
E 596 598 1
E 597 600 2
E 597 612 9
E 598 599 1
E 599 601 1
E 600 618 9
E 602 611 5
E 603 606 1
E 604 607 1
E 604 613 5
E 605 613 5
E 605 651 23
E 606 608 1
E 607 615 5
E 607 633 14
E 608 609 1
E 609 610 1
E 610 638 14
E 612 618 2
E 612 620 3
E 613 615 1
E 613 667 23
E 614 616 1
E 614 624 5
E 615 630 7
E 615 645 14
E 616 627 5
E 617 619 1
E 617 629 6
E 618 623 3
E 618 641 12
E 619 621 1
E 619 631 6
E 620 622 1
E 620 623 2
E 621 632 6
E 622 626 2
E 622 633 6
E 623 626 1
E 623 647 12
E 624 627 1
E 625 628 1
E 626 636 6
E 626 650 12
E 627 689 24
E 628 629 1
E 629 631 1
E 630 664 14
E 630 672 16
E 631 632 1
E 632 634 1
E 633 636 2
E 633 645 5
E 635 637 1
E 635 638 1
E 636 648 5
E 636 670 12
E 637 639 1
E 637 640 1
E 638 640 1
E 639 642 1
E 639 651 5
E 640 642 1
E 640 643 1
E 641 647 3
E 642 646 1
E 642 654 5
E 643 646 1
E 644 655 5
E 645 648 2
E 645 664 7
E 646 658 5
E 647 649 1
E 647 650 1
E 648 671 7
E 648 685 12
E 649 652 1
E 649 653 1
E 650 653 1
E 650 670 6
E 651 654 1
E 651 667 5
E 652 656 1
E 652 657 1
E 653 657 1
E 653 674 6
E 654 658 1
E 654 673 5
E 656 660 1
E 656 661 1
E 657 661 1
E 657 678 6
E 658 676 5
E 659 668 3
E 660 662 1
E 660 663 1
E 661 663 1
E 661 682 6
E 662 665 1
E 662 666 1
E 663 666 1
E 663 683 6
E 664 671 2
E 665 668 1
E 665 669 1
E 666 669 1
E 666 684 6
E 667 672 1
E 667 673 1
E 668 689 7
E 668 698 12
E 669 687 6
E 669 759 39
E 670 674 1
E 670 685 5
E 671 686 5
E 671 699 12
E 672 675 1
E 673 675 1
E 673 676 1
E 674 678 1
E 674 688 5
E 675 679 1
E 675 691 6
E 676 679 1
E 676 680 1
E 677 681 1
E 678 682 1
E 678 690 5
E 681 722 18
E 682 683 1
E 682 692 5
E 683 684 1
E 683 693 5
E 684 687 1
E 684 695 5
E 685 688 1
E 685 699 7
E 686 697 6
E 686 709 12
E 687 696 5
E 687 702 8
E 688 690 1
E 688 700 7
E 689 702 7
E 690 692 1
E 690 703 7
E 691 694 2
E 691 706 8
E 692 693 1
E 692 704 7
E 693 695 1
E 693 707 7
E 694 711 8
E 694 719 10
E 695 696 1
E 696 698 1
E 696 712 7
E 697 724 12
E 698 715 7
E 698 716 7
E 699 700 1
E 699 709 5
E 700 703 1
E 700 713 5
E 701 719 6
E 702 715 5
E 702 765 31
E 703 704 1
E 703 717 5
E 704 707 1
E 704 721 5
E 705 708 1
E 706 708 1
E 706 711 2
E 708 710 1
E 708 714 2
E 709 713 1
E 709 724 6
E 710 718 2
E 710 737 12
E 711 714 1
E 711 732 10
E 712 716 1
E 713 717 1
E 713 726 6
E 714 718 1
E 714 734 10
E 715 720 1
E 715 728 7
E 716 725 5
E 716 728 7
E 717 721 1
E 717 727 6
E 718 738 10
E 718 746 13
E 719 722 1
E 719 732 8
E 720 730 7
E 720 773 30
E 721 729 6
E 722 735 8
E 724 726 1
E 724 733 5
E 725 739 6
E 725 741 7
E 726 727 1
E 727 729 1
E 728 730 1
E 728 741 5
E 729 731 1
E 730 743 5
E 731 744 5
E 732 734 1
E 732 735 1
E 733 737 1
E 734 738 1
E 736 739 1
E 736 750 5
E 737 740 1
E 738 760 13
E 739 756 7
E 740 742 1
E 740 746 2
E 741 743 1
E 741 756 6
E 742 745 1
E 742 749 2
E 743 758 6
E 744 747 1
E 744 748 1
E 745 748 1
E 745 752 2
E 746 749 1
E 746 760 10
E 747 750 1
E 747 751 1
E 748 751 1
E 748 754 2
E 749 752 1
E 749 761 10
E 750 753 1
E 751 753 1
E 751 755 2
E 752 754 1
E 752 764 10
E 753 757 2
E 754 755 1
E 754 767 10
E 755 757 1
E 755 768 10
E 756 758 1
E 757 766 8
E 757 769 10
E 758 763 6
E 759 765 6
E 760 761 1
E 760 762 1
E 761 764 1
E 763 781 26
E 764 767 1
E 765 773 5
E 766 775 10
E 767 768 1
E 768 769 1
E 769 775 8
E 770 771 1
E 770 772 2
E 771 774 2
E 771 779 14
E 772 774 1
E 773 782 24
E 774 780 14
E 775 777 1
E 776 779 7
E 777 778 1
E 777 784 20
E 779 780 2
E 780 784 12
E 781 782 4
E 781 785 12
E 782 783 1
E 782 786 12
E 783 787 12
E 785 786 4
E 786 787 1
E 786 788 4
E 787 789 4
E 788 789 1
E 788 790 2
E 789 791 2
E 790 791 1
E 790 792 1
E 791 793 1
E 791 794 1
E 792 794 1
E 792 797 5
E 793 795 1
E 794 795 1
E 794 798 5
E 795 796 1
E 796 799 5
E 797 798 1
E 798 801 7
E 799 800 2
E 799 803 7
E 800 807 7
E 801 802 1
E 801 804 2
E 802 803 1
E 802 805 2
E 803 807 2
E 804 805 1
E 804 806 1
E 805 808 1
E 806 808 1
E 807 809 2
E 808 810 2
E 809 812 2
E 810 811 1
E 811 814 2
E 811 816 7
E 812 813 1
E 813 815 2
E 814 815 2
E 814 817 7
E 816 817 2
E 816 819 5
E 817 821 5
E 818 819 1
E 818 820 1
E 819 821 2
E 820 822 2
E 821 824 2
E 822 823 1
E 822 827 3
E 823 826 2
E 824 825 1
E 825 828 2
E 826 828 2
E 828 829 3
E 830 831 2
E 832 833 1
E 834 835 1
E 836 837 2
E 1 838 100000
E 2 838 100000
E 3 838 100000
E 4 838 100000
E 5 838 100000
E 6 839 100000
E 7 839 100000
E 8 840 100000
E 9 840 100000
E 10 840 100000
E 11 840 100000
E 12 840 100000
E 13 840 100000
E 14 841 100000
E 15 841 100000
E 16 842 100000
E 17 842 100000
E 18 842 100000
E 19 842 100000
E 20 842 100000
E 21 842 100000
E 22 843 100000
E 23 843 100000
E 24 844 100000
E 25 844 100000
E 26 845 100000
E 27 845 100000
E 28 845 100000
E 29 845 100000
E 30 845 100000
E 31 846 100000
E 32 846 100000
E 33 847 100000
E 34 847 100000
E 35 848 100000
E 36 848 100000
E 37 848 100000
E 38 849 100000
E 39 849 100000
E 40 849 100000
E 41 849 100000
E 42 850 100000
E 43 850 100000
E 44 850 100000
E 45 850 100000
E 46 850 100000
E 47 850 100000
E 48 851 100000
E 49 851 100000
E 50 852 100000
E 51 852 100000
E 52 853 100000
E 53 853 100000
E 54 854 100000
E 55 854 100000
E 56 854 100000
E 57 855 100000
E 58 855 100000
E 59 856 100000
E 60 856 100000
E 61 857 100000
E 62 857 100000
E 63 858 100000
E 64 858 100000
E 65 859 100000
E 66 859 100000
E 67 860 100000
E 68 860 100000
E 69 861 100000
E 70 861 100000
E 71 861 100000
E 72 861 100000
E 73 861 100000
E 74 862 100000
E 75 862 100000
E 76 862 100000
E 77 862 100000
E 78 863 100000
E 79 863 100000
E 80 864 100000
E 81 864 100000
E 82 864 100000
E 83 864 100000
E 84 865 100000
E 85 865 100000
E 86 865 100000
E 87 865 100000
E 88 865 100000
E 89 865 100000
E 90 866 100000
E 91 866 100000
E 92 866 100000
E 93 866 100000
E 94 866 100000
E 95 866 100000
E 96 867 100000
E 97 867 100000
E 98 867 100000
E 99 867 100000
E 100 867 100000
E 101 868 100000
E 102 868 100000
E 103 868 100000
E 104 868 100000
E 105 868 100000
E 106 868 100000
E 107 869 100000
E 108 869 100000
E 109 869 100000
E 110 869 100000
E 111 869 100000
E 112 869 100000
E 113 870 100000
E 114 870 100000
E 115 870 100000
E 116 870 100000
E 117 870 100000
E 118 871 100000
E 119 871 100000
E 120 871 100000
E 121 871 100000
E 122 871 100000
E 123 871 100000
E 124 872 100000
E 125 872 100000
E 126 872 100000
E 127 872 100000
E 128 872 100000
E 129 872 100000
E 130 873 100000
E 131 873 100000
E 132 873 100000
E 133 873 100000
E 134 873 100000
E 135 874 100000
E 136 874 100000
E 137 874 100000
E 138 874 100000
E 139 874 100000
E 140 874 100000
E 141 875 100000
E 142 875 100000
E 143 875 100000
E 144 875 100000
E 145 875 100000
E 146 875 100000
E 147 876 100000
E 148 876 100000
E 149 876 100000
E 150 876 100000
E 151 876 100000
E 152 877 100000
E 153 877 100000
E 154 877 100000
E 155 877 100000
E 156 877 100000
E 157 877 100000
E 158 878 100000
E 159 878 100000
E 160 878 100000
E 161 878 100000
E 162 878 100000
E 163 878 100000
E 164 879 100000
E 165 879 100000
E 166 879 100000
E 167 879 100000
E 168 879 100000
E 169 880 100000
E 170 880 100000
E 171 880 100000
E 172 880 100000
E 173 880 100000
E 174 880 100000
E 175 881 100000
E 176 881 100000
E 177 881 100000
E 178 881 100000
E 179 881 100000
E 180 881 100000
E 181 882 100000
E 182 882 100000
E 183 882 100000
E 184 882 100000
E 185 882 100000
E 186 883 100000
E 187 883 100000
E 188 883 100000
E 189 883 100000
E 190 883 100000
E 191 884 100000
E 192 884 100000
E 193 884 100000
E 194 884 100000
E 195 884 100000
E 196 884 100000
E 197 885 100000
E 198 885 100000
E 199 885 100000
E 200 885 100000
E 201 886 100000
E 202 844 100000
E 203 844 100000
E 204 844 100000
E 205 844 100000
E 206 847 100000
E 207 847 100000
E 208 847 100000
E 209 847 100000
E 210 848 100000
E 211 865 100000
E 212 865 100000
E 213 865 100000
E 214 865 100000
E 215 865 100000
E 216 866 100000
E 217 868 100000
E 218 868 100000
E 219 868 100000
E 220 868 100000
E 221 868 100000
E 222 869 100000
E 223 871 100000
E 224 871 100000
E 225 871 100000
E 226 871 100000
E 227 871 100000
E 228 872 100000
E 229 872 100000
E 230 874 100000
E 231 874 100000
E 232 874 100000
E 233 874 100000
E 234 874 100000
E 235 875 100000
E 236 875 100000
E 237 877 100000
E 238 877 100000
E 239 877 100000
E 240 877 100000
E 241 878 100000
E 242 880 100000
E 243 880 100000
E 244 880 100000
E 245 880 100000
E 246 881 100000
E 247 883 100000
E 248 883 100000
E 249 883 100000
E 250 883 100000
E 251 884 100000
END 

SECTION Terminals 
Terminals 50
TP 838 863
TP 839 864
TP 840 865
TP 841 866
TP 842 867
TP 843 868
TP 844 869
TP 845 870
TP 846 871
TP 847 872
TP 848 873
TP 849 874
TP 850 875
TP 851 876
TP 852 877
TP 853 878
TP 854 879
TP 855 880
TP 856 881
TP 857 882
TP 858 883
TP 859 884
TP 860 885
TP 861 886
TP 862 147
END 
